# Solution for model Path_planning
# Objective value = 1.9417999014519438e+01
U_0 -1.2079226507921703e-13
ux_0 0
uy_0 0
uz_0 0
Vx_0 0
Vy_0 0
Vz_0 0
Px_0 8.913
Py_0 14.642
Pz_0 0.41
U_1 1.4299283198873360e+00
ux_1 3.5700379591182324e-01
uy_1 -8.0630592112175703e-01
uz_1 1.1810037755743377e+00
Vx_1 0
Vy_1 0
Vz_1 0
Px_1 8.913
Py_1 14.642
Pz_1 0.41
U_2 5.8450822370817557e+00
ux_2 -3.5700759227068157e-01
uy_2 -5.8450822370817557e+00
uz_2 1.2699244905985574e-01
Vx_2 3.5700379591182324e-01
Vy_2 -8.0630592112175703e-01
Vz_2 1.1810037755743377e+00
Px_2 9.0915018979559115e+00
Py_2 1.4238847039439120e+01
Pz_2 1.0005018877871688e+00
U_3 1.3602706633791053e+00
ux_3 3.7963588796485759e-06
uy_3 3.9677631691365656e-01
uz_3 -1.3079962246340229e+00
Vx_3 -3.7963588583322938e-06
Vy_3 -6.6513881582035115e+00
Vz_3 1.3079962246341934e+00
Px_3 9.2700018977323957e+00
Py_3 1.0509999999776486e+01
Pz_3 2.2450018878914344e+00
U_4 8.3107288454176569e+00
ux_4 -2.2965660119114979e+00
uy_4 8.0739177617410469e+00
uz_4 -4.0899999998239311e-01
Vx_4 2.1316282072803006e-14
Vy_4 -6.2546118412898561e+00
Vz_4 1.7053025658242404e-13
Px_4 9.2699999995529652e+00
Py_4 4.0570000000298023e+00
Pz_4 2.8990000002086163e+00
U_5 1.8641404090288767e+00
ux_5 -1.3030196381858011e-01
uy_5 -1.8193059204511479e+00
uz_5 4.0899999997612879e-01
Vx_5 -2.2965660119114766e+00
Vy_5 1.8193059204511910e+00
Vz_5 -4.0899999998222258e-01
Px_5 8.1217169935972375e+00
Py_5 1.8393470396104696e+00
Pz_5 2.6945000002175901e+00
U_6 1.9189295779128404e+00
ux_6 5.5530196456366032e-01
uy_6 1.8305852497219059e+00
uz_6 -2.5400000064650902e-01
Vx_6 -2.4268679757300573e+00
Vy_6 4.2632564145606011e-14
Vz_6 -6.0937921375625592e-12
Px_6 5.7599999997764826e+00
Py_6 2.7489999998360872e+00
Pz_6 2.4900000002235174e+00
U_7 2.1319605774394392e+00
ux_7 1.8715660111663950e+00
uy_7 1.1762442522944270e+00
uz_7 2.5400000065260298e-01
Vx_7 -1.8715660111663950e+00
Vy_7 1.8305852497219490e+00
Vz_7 -2.5400000065260298e-01
Px_7 3.6107830063282558e+00
Py_7 3.6642926246970817e+00
Pz_7 2.3629999998941682e+00
U_8 1.8587433441683823e-01
ux_8 1.1199999973177910e-01
uy_8 1.3886600479327754e-01
uz_8 1.2399999983608723e-01
Vx_8 0
Vy_8 3.0068295020163762e+00
Vz_8 0
Px_8 2.6750000007450581e+00
Py_8 6.0830000005662441e+00
Pz_8 2.2359999995678663e+00
U_9 1.6353220120289386e-01
ux_9 -1.1199999973177907e-01
uy_9 -9.1916024352686615e-02
uz_9 -1.2399999983608723e-01
Vx_9 1.1199999973177910e-01
Vy_9 3.1456955068096555e+00
Vz_9 1.2399999983608723e-01
Px_9 2.7310000006109476e+00
Py_9 9.1592625049792584e+00
Pz_9 2.2979999994859099e+00
U_10 5.4503500148110202e+00
ux_10 3.6174999997019768e+00
uy_10 -3.8946692239405314e+00
uz_10 -1.2620000001043081e+00
Vx_10 0
Vy_10 3.0537794824569691e+00
Vz_10 0
Px_10 2.7870000004768372e+00
Py_10 1.2258999999612570e+01
Pz_10 2.3599999994039536e+00
U_11 3.9861131297559589e+00
ux_11 -3.6174999997019759e+00
uy_11 1.1588974186223311e-01
uz_11 1.2620000001043081e+00
Vx_11 3.6174999997019768e+00
Vy_11 -8.4088974148356499e-01
Vz_11 -1.2620000001043081e+00
Px_11 4.5957500003278255e+00
Py_11 1.3365444870099275e+01
Pz_11 1.7289999993517995e+00
U_12 0
ux_12 0
uy_12 0
uz_12 0
Vx_12 0
Vy_12 -7.2499999962133188e-01
Vz_12 0
Px_12 6.4045000001788139e+00
Py_12 1.2582499999546826e+01
Pz_12 1.0979999992996454e+00
U_13 4.7674952330596936e+00
ux_13 -4.8402482373105018e+00
uy_13 -3.8501076087355646e-02
uz_13 -4.4989959764270004e-03
Vx_13 0
Vy_13 -7.2499999962133188e-01
Vz_13 0
Px_13 6.4045000001788139e+00
Py_13 1.1857499999925494e+01
Pz_13 1.0979999992996454e+00
U_14 7.6847002986966118e+00
ux_14 7.5317447118719025e+00
uy_14 -2.6994978484590360e+00
uz_14 1.0674979931595852e+00
Vx_14 -4.8402482373105018e+00
Vy_14 -7.6350107570868753e-01
Vz_14 -4.4989959764270004e-03
Px_14 3.9843758815235630e+00
Py_14 1.1113249462260484e+01
Pz_14 1.0957505013114319e+00
U_15 3.6479897566482271e+00
ux_15 6.1700705087719943e-01
uy_15 3.4629989241677235e+00
uz_15 -1.0629989971831582e+00
Vx_15 2.6914964745614003e+00
Vy_15 -3.4629989241677235e+00
Vz_15 1.0629989971831582e+00
Px_15 2.9100000001490116e+00
Py_15 8.9999994623222790e+00
Pz_15 1.6250005019147975e+00
U_16 3.2634212221526244e+00
ux_16 -2.4370070511752226e+00
uy_16 1.9999999999994031e+00
uz_16 -9.9999999999947420e-01
Vx_16 3.3085035254385997e+00
Vy_16 0
Vz_16 0
Px_16 5.9100000001490116e+00
Py_16 7.2685000002384186e+00
Pz_16 2.1565000005063766e+00
U_17 3.3735000006827738e+00
ux_17 -3.9424471075431633e-01
uy_17 3.3735000006827738e+00
uz_17 2.5349999964167935e-01
Vx_17 8.7149647426337706e-01
Vy_17 1.9999999999994031e+00
Vz_17 -9.9999999999953815e-01
Px_17 8
Py_17 8.2685000002381202e+00
Pz_17 1.6565000005066395e+00
U_18 5.4158846303630845e+00
ux_18 -4.7725176350905940e-01
uy_18 -5.3735000006744302e+00
uz_18 7.4650000035785880e-01
Vx_18 4.7725176350905940e-01
Vy_18 5.3735000006821769e+00
Vz_18 -7.4650000035785880e-01
Px_18 8.6743741188862202e+00
Py_18 1.1955250000578911e+01
Pz_18 7.8325000032794101e-01
U_19 0
ux_19 0
uy_19 0
uz_19 -9.9076369082657612e-13
Vx_19 0
Vy_19 7.7462797423664157e-12
Vz_19 0
Px_19 8.9130000006407499e+00
Py_19 1.4642000000923872e+01
Pz_19 4.1000000014901161e-01
U_20 0
ux_20 0
uy_20 0
uz_20 0
Vx_20 0
Vy_20 7.7462797423664157e-12
Vz_20 -9.9076369082657612e-13
Px_20 8.9130000006407499e+00
Py_20 1.4642000000931619e+01
Pz_20 4.1000000014851623e-01
U_21 0
ux_21 0
uy_21 0
uz_21 0
Vx_21 0
Vy_21 7.7462797423664157e-12
Vz_21 -9.9076369082657612e-13
Px_21 8.9130000006407499e+00
Py_21 1.4642000000939365e+01
Pz_21 4.1000000014752547e-01
U_22 0
ux_22 0
uy_22 0
uz_22 0
Vx_22 0
Vy_22 7.5071235114535051e-12
Vz_22 -9.9076369082657612e-13
Px_22 8.9130000006407499e+00
Py_22 1.4642000000947112e+01
Pz_22 4.1000000014653470e-01
U_23 0
ux_23 0
uy_23 0
uz_23 0
Vx_23 2.0012815099242975e-12
Vy_23 7.5071235114535051e-12
Vz_23 -9.9076369082657612e-13
Px_23 8.9130000006407499e+00
Py_23 1.4642000000954619e+01
Pz_23 4.1000000014554394e-01
U_24 0
ux_24 0
uy_24 0
uz_24 0
Vx_24 2.0012815099242975e-12
Vy_24 7.5071235114535051e-12
Vz_24 -9.9076369082657612e-13
Px_24 8.9130000006427519e+00
Py_24 1.4642000000962126e+01
Pz_24 4.1000000014455318e-01
U_25 0
ux_25 0
uy_25 0
uz_25 0
Vx_25 2.0012815099242975e-12
Vy_25 7.5071235114535051e-12
Vz_25 -9.9076369082657612e-13
Px_25 8.9130000006447538e+00
Py_25 1.4642000000969633e+01
Pz_25 4.1000000014356242e-01
U_26 7.5071235114535051e-12
ux_26 0
uy_26 -7.5071235114535051e-12
uz_26 0
Vx_26 2.0012815099242975e-12
Vy_26 7.5071235114535051e-12
Vz_26 -9.9076369082657612e-13
Px_26 8.9130000006467558e+00
Py_26 1.4642000000977140e+01
Pz_26 4.1000000014257165e-01
U_27 0
ux_27 0
uy_27 0
uz_27 0
Vx_27 2.0012815099242975e-12
Vy_27 0
Vz_27 -9.9076369082657612e-13
Px_27 8.9130000006487577e+00
Py_27 1.4642000000980893e+01
Pz_27 4.1000000014158089e-01
U_28 0
ux_28 0
uy_28 0
uz_28 0
Vx_28 2.0012815099242975e-12
Vy_28 0
Vz_28 -9.9076369082657612e-13
Px_28 8.9130000006507597e+00
Py_28 1.4642000000980893e+01
Pz_28 4.1000000014059013e-01
U_29 0
ux_29 0
uy_29 0
uz_29 0
Vx_29 0
Vy_29 0
Vz_29 -9.9076369082657612e-13
Px_29 8.9130000006527617e+00
Py_29 1.4642000000980893e+01
Pz_29 4.1000000013959936e-01
U_30 0
ux_30 0
uy_30 0
uz_30 0
Vx_30 0
Vy_30 0
Vz_30 -9.9076369082657612e-13
Px_30 8.9130000006527617e+00
Py_30 1.4642000000980893e+01
Pz_30 4.1000000013860860e-01
U_31 0
ux_31 0
uy_31 0
uz_31 0
Vx_31 0
Vy_31 0
Vz_31 0
Px_31 8.9130000006527617e+00
Py_31 1.4642000000980893e+01
Pz_31 4.1000000013761784e-01
U_32 0
ux_32 0
uy_32 0
uz_32 0
Vx_32 0
Vy_32 0
Vz_32 0
Px_32 8.9130000006527617e+00
Py_32 1.4642000000980893e+01
Pz_32 4.1000000013761784e-01
U_33 0
ux_33 0
uy_33 0
uz_33 0
Vx_33 0
Vy_33 0
Vz_33 0
Px_33 8.9130000006527617e+00
Py_33 1.4642000000980893e+01
Pz_33 4.1000000013761784e-01
U_34 0
ux_34 0
uy_34 0
uz_34 0
Vx_34 0
Vy_34 0
Vz_34 0
Px_34 8.9130000006527617e+00
Py_34 1.4642000000980893e+01
Pz_34 4.1000000013761784e-01
U_35 0
ux_35 0
uy_35 0
uz_35 0
Vx_35 0
Vy_35 0
Vz_35 0
Px_35 8.9130000006527617e+00
Py_35 1.4642000000980893e+01
Pz_35 4.1000000013761784e-01
U_36 0
ux_36 0
uy_36 0
uz_36 0
Vx_36 0
Vy_36 0
Vz_36 0
Px_36 8.9130000006527617e+00
Py_36 1.4642000000980893e+01
Pz_36 4.1000000013761784e-01
U_37 0
ux_37 0
uy_37 0
uz_37 0
Vx_37 0
Vy_37 0
Vz_37 0
Px_37 8.9130000006527617e+00
Py_37 1.4642000000980893e+01
Pz_37 4.1000000013761784e-01
U_38 0
ux_38 0
uy_38 0
uz_38 0
Vx_38 0
Vy_38 0
Vz_38 0
Px_38 8.9130000006527617e+00
Py_38 1.4642000000980893e+01
Pz_38 4.1000000013761784e-01
U_39 0
ux_39 0
uy_39 0
uz_39 0
Vx_39 0
Vy_39 0
Vz_39 0
Px_39 8.9130000006527617e+00
Py_39 1.4642000000980893e+01
Pz_39 4.1000000013761784e-01
U_40 -1.2079226507921703e-13
ux_40 0
uy_40 0
uz_40 0
Vx_40 0
Vy_40 0
Vz_40 0
Px_40 8.9130000006527617e+00
Py_40 1.4642000000980893e+01
Pz_40 4.1000000013761784e-01
b_0_0 0
b_0_1 0
b_0_2 0
b_0_3 0
b_0_4 0
b_0_5 0
b_0_6 0
b_0_7 0
b_0_8 0
b_0_9 0
b_0_10 0
b_0_11 0
b_0_12 0
b_0_13 0
b_0_14 0
b_0_15 0
b_0_16 0
b_0_17 0
b_0_18 0
b_0_19 0
b_0_20 0
b_0_21 0
b_0_22 0
b_0_23 0
b_0_24 0
b_0_25 0
b_0_26 0
b_0_27 0
b_0_28 0
b_0_29 0
b_0_30 0
b_0_31 0
b_0_32 0
b_0_33 0
b_0_34 0
b_0_35 0
b_0_36 0
b_0_37 0
b_0_38 0
b_0_39 0
b_0_40 0
b_1_0 0
b_1_1 0
b_1_2 0
b_1_3 1
b_1_4 0
b_1_5 0
b_1_6 0
b_1_7 0
b_1_8 0
b_1_9 0
b_1_10 0
b_1_11 0
b_1_12 0
b_1_13 0
b_1_14 0
b_1_15 0
b_1_16 0
b_1_17 0
b_1_18 0
b_1_19 0
b_1_20 0
b_1_21 0
b_1_22 0
b_1_23 0
b_1_24 0
b_1_25 0
b_1_26 0
b_1_27 0
b_1_28 0
b_1_29 0
b_1_30 0
b_1_31 0
b_1_32 0
b_1_33 0
b_1_34 0
b_1_35 0
b_1_36 0
b_1_37 0
b_1_38 0
b_1_39 0
b_1_40 0
b_2_0 0
b_2_1 0
b_2_2 0
b_2_3 0
b_2_4 1
b_2_5 0
b_2_6 0
b_2_7 0
b_2_8 0
b_2_9 0
b_2_10 0
b_2_11 0
b_2_12 0
b_2_13 0
b_2_14 0
b_2_15 0
b_2_16 0
b_2_17 0
b_2_18 0
b_2_19 0
b_2_20 0
b_2_21 0
b_2_22 0
b_2_23 0
b_2_24 0
b_2_25 0
b_2_26 0
b_2_27 0
b_2_28 0
b_2_29 0
b_2_30 0
b_2_31 0
b_2_32 0
b_2_33 0
b_2_34 0
b_2_35 0
b_2_36 0
b_2_37 0
b_2_38 0
b_2_39 0
b_2_40 0
b_3_0 0
b_3_1 0
b_3_2 0
b_3_3 0
b_3_4 0
b_3_5 0
b_3_6 1
b_3_7 0
b_3_8 0
b_3_9 0
b_3_10 0
b_3_11 0
b_3_12 0
b_3_13 0
b_3_14 0
b_3_15 0
b_3_16 0
b_3_17 0
b_3_18 0
b_3_19 0
b_3_20 0
b_3_21 0
b_3_22 0
b_3_23 0
b_3_24 0
b_3_25 0
b_3_26 0
b_3_27 0
b_3_28 0
b_3_29 0
b_3_30 0
b_3_31 0
b_3_32 0
b_3_33 0
b_3_34 0
b_3_35 0
b_3_36 0
b_3_37 0
b_3_38 0
b_3_39 0
b_3_40 0
b_4_0 0
b_4_1 0
b_4_2 0
b_4_3 0
b_4_4 0
b_4_5 0
b_4_6 0
b_4_7 0
b_4_8 1
b_4_9 0
b_4_10 0
b_4_11 0
b_4_12 0
b_4_13 0
b_4_14 0
b_4_15 0
b_4_16 0
b_4_17 0
b_4_18 0
b_4_19 0
b_4_20 0
b_4_21 0
b_4_22 0
b_4_23 0
b_4_24 0
b_4_25 0
b_4_26 0
b_4_27 0
b_4_28 0
b_4_29 0
b_4_30 0
b_4_31 0
b_4_32 0
b_4_33 0
b_4_34 0
b_4_35 0
b_4_36 0
b_4_37 0
b_4_38 0
b_4_39 0
b_4_40 0
b_5_0 0
b_5_1 0
b_5_2 0
b_5_3 0
b_5_4 0
b_5_5 0
b_5_6 0
b_5_7 0
b_5_8 0
b_5_9 0
b_5_10 1
b_5_11 0
b_5_12 0
b_5_13 0
b_5_14 0
b_5_15 0
b_5_16 0
b_5_17 0
b_5_18 0
b_5_19 0
b_5_20 0
b_5_21 0
b_5_22 0
b_5_23 0
b_5_24 0
b_5_25 0
b_5_26 0
b_5_27 0
b_5_28 0
b_5_29 0
b_5_30 0
b_5_31 0
b_5_32 0
b_5_33 0
b_5_34 0
b_5_35 0
b_5_36 0
b_5_37 0
b_5_38 0
b_5_39 0
b_5_40 0
b_6_0 0
b_6_1 0
b_6_2 0
b_6_3 0
b_6_4 0
b_6_5 0
b_6_6 0
b_6_7 0
b_6_8 0
b_6_9 0
b_6_10 0
b_6_11 0
b_6_12 1
b_6_13 0
b_6_14 0
b_6_15 0
b_6_16 0
b_6_17 0
b_6_18 0
b_6_19 0
b_6_20 0
b_6_21 0
b_6_22 0
b_6_23 0
b_6_24 0
b_6_25 0
b_6_26 0
b_6_27 0
b_6_28 0
b_6_29 0
b_6_30 0
b_6_31 0
b_6_32 0
b_6_33 0
b_6_34 0
b_6_35 0
b_6_36 0
b_6_37 0
b_6_38 0
b_6_39 0
b_6_40 0
b_7_0 0
b_7_1 0
b_7_2 0
b_7_3 0
b_7_4 0
b_7_5 0
b_7_6 0
b_7_7 0
b_7_8 0
b_7_9 0
b_7_10 0
b_7_11 0
b_7_12 0
b_7_13 1
b_7_14 0
b_7_15 0
b_7_16 0
b_7_17 0
b_7_18 0
b_7_19 0
b_7_20 0
b_7_21 0
b_7_22 0
b_7_23 0
b_7_24 0
b_7_25 0
b_7_26 0
b_7_27 0
b_7_28 0
b_7_29 0
b_7_30 0
b_7_31 0
b_7_32 0
b_7_33 0
b_7_34 0
b_7_35 0
b_7_36 0
b_7_37 0
b_7_38 0
b_7_39 0
b_7_40 0
b_8_0 0
b_8_1 0
b_8_2 0
b_8_3 0
b_8_4 0
b_8_5 0
b_8_6 0
b_8_7 0
b_8_8 0
b_8_9 0
b_8_10 0
b_8_11 0
b_8_12 0
b_8_13 0
b_8_14 0
b_8_15 1
b_8_16 0
b_8_17 0
b_8_18 0
b_8_19 0
b_8_20 0
b_8_21 0
b_8_22 0
b_8_23 0
b_8_24 0
b_8_25 0
b_8_26 0
b_8_27 0
b_8_28 0
b_8_29 0
b_8_30 0
b_8_31 0
b_8_32 0
b_8_33 0
b_8_34 0
b_8_35 0
b_8_36 0
b_8_37 0
b_8_38 0
b_8_39 0
b_8_40 0
b_9_0 0
b_9_1 0
b_9_2 0
b_9_3 0
b_9_4 0
b_9_5 0
b_9_6 0
b_9_7 0
b_9_8 0
b_9_9 0
b_9_10 0
b_9_11 0
b_9_12 0
b_9_13 0
b_9_14 0
b_9_15 0
b_9_16 1
b_9_17 0
b_9_18 0
b_9_19 0
b_9_20 0
b_9_21 0
b_9_22 0
b_9_23 0
b_9_24 0
b_9_25 0
b_9_26 0
b_9_27 0
b_9_28 0
b_9_29 0
b_9_30 0
b_9_31 0
b_9_32 0
b_9_33 0
b_9_34 0
b_9_35 0
b_9_36 0
b_9_37 0
b_9_38 0
b_9_39 0
b_9_40 0
b_10_0 0
b_10_1 0
b_10_2 0
b_10_3 0
b_10_4 0
b_10_5 0
b_10_6 0
b_10_7 0
b_10_8 0
b_10_9 0
b_10_10 0
b_10_11 0
b_10_12 0
b_10_13 0
b_10_14 0
b_10_15 0
b_10_16 0
b_10_17 1
b_10_18 0
b_10_19 0
b_10_20 0
b_10_21 0
b_10_22 0
b_10_23 0
b_10_24 0
b_10_25 0
b_10_26 0
b_10_27 0
b_10_28 0
b_10_29 0
b_10_30 0
b_10_31 0
b_10_32 0
b_10_33 0
b_10_34 0
b_10_35 0
b_10_36 0
b_10_37 0
b_10_38 0
b_10_39 0
b_10_40 0
b_11_0 0
b_11_1 0
b_11_2 0
b_11_3 0
b_11_4 0
b_11_5 0
b_11_6 0
b_11_7 0
b_11_8 0
b_11_9 0
b_11_10 0
b_11_11 0
b_11_12 0
b_11_13 0
b_11_14 0
b_11_15 0
b_11_16 0
b_11_17 0
b_11_18 0
b_11_19 1
b_11_20 0
b_11_21 0
b_11_22 0
b_11_23 0
b_11_24 0
b_11_25 0
b_11_26 0
b_11_27 0
b_11_28 0
b_11_29 0
b_11_30 0
b_11_31 0
b_11_32 0
b_11_33 0
b_11_34 0
b_11_35 0
b_11_36 0
b_11_37 0
b_11_38 0
b_11_39 0
b_11_40 0
Tsim 19
